8	8
2	9	4	1	7	4	5	8	3	5	1	2	0	7	6	9
1	3	5	5	3	7	6	5	0	1	4	3	2	6	7	3
6	8	3	7	1	1	4	3	0	1	7	3	5	2	2	6
2	1	0	8	4	6	3	2	7	4	5	3	6	2	1	8
1	9	2	3	3	2	6	1	7	9	0	1	5	4	4	5
6	5	2	4	1	6	7	8	5	3	4	8	0	7	3	2
0	2	6	6	4	1	7	1	5	8	3	8	1	7	2	6
3	1	6	1	0	9	1	1	2	6	7	1	4	6	5	3
